Route #1: 1 42 32 48 23 13 39 10 24 30 1
Route #2: 1 26 31 8 19 15 44 25 28 17 11 4 1
Route #3: 1 29 33 3 49 45 16 1
Route #4: 1 34 40 27 14 2 36 1
Route #5: 1 35 50 41 7 20 18 22 46 1
Route #6: 1 47 5 12 38 9 21 6 37 1
Route #7: 1 43 1
cost 858.7427712802147
